125
[14,18,23,26,27,28,30,31,32,33,34,35,37,38,39,42,47,50,53,57,59,60,61,62,66,69,71,72,75,77,80,83,85,88,89,92,93,94,95,97,98,99,100]
[2,1,1,1,1,1,1,1,1,2,1,2,1,1,1,1,1,1,1,1,1,1,1,1,1,1,1,1,1,1,1,1,1,1,1,1,2,3,1,1,2,1,1]
